benchmarks_CP/INST_49x49/40/inst49x49_40_83.dzn
S=7;
start=[|
31,	-1,	-1,	4,	8,	43,	-1,	-1,	7,	-1,	-1,	-1,	-1,	14,	-1,	-1,	-1,	29,	-1,	-1,	17,	-1,	48,	-1,	-1,	-1,	-1,	-1,	-1,	-1,	6,	-1,	-1,	-1,	-1,	-1,	5,	-1,	3,	35,	-1,	30,	-1,	-1,	-1,	-1,	44,	24,	28|
-1,	-1,	12,	-1,	-1,	44,	-1,	-1,	-1,	-1,	40,	21,	-1,	-1,	18,	-1,	-1,	-1,	32,	35,	-1,	-1,	-1,	-1,	-1,	46,	-1,	-1,	-1,	-1,	15,	-1,	-1,	-1,	41,	-1,	-1,	-1,	31,	-1,	24,	-1,	-1,	-1,	-1,	34,	-1,	26,	-1|
-1,	41,	-1,	13,	39,	32,	-1,	9,	-1,	-1,	47,	-1,	-1,	-1,	-1,	8,	46,	-1,	-1,	-1,	-1,	1,	-1,	-1,	-1,	-1,	18,	-1,	-1,	20,	35,	19,	43,	-1,	-1,	2,	-1,	-1,	25,	34,	21,	-1,	14,	22,	-1,	49,	-1,	40,	-1|
-1,	-1,	-1,	-1,	30,	35,	-1,	48,	32,	-1,	-1,	10,	-1,	-1,	-1,	-1,	23,	21,	-1,	7,	4,	-1,	-1,	-1,	-1,	-1,	11,	12,	-1,	-1,	-1,	3,	-1,	-1,	-1,	-1,	13,	-1,	22,	44,	38,	-1,	2,	-1,	-1,	-1,	36,	-1,	47|
-1,	-1,	-1,	-1,	-1,	-1,	-1,	-1,	-1,	-1,	17,	-1,	1,	43,	-1,	-1,	-1,	40,	-1,	-1,	-1,	-1,	-1,	21,	-1,	38,	-1,	31,	32,	-1,	-1,	13,	-1,	47,	-1,	27,	39,	14,	-1,	48,	-1,	-1,	-1,	7,	-1,	23,	-1,	-1,	-1|
46,	2,	-1,	49,	11,	37,	47,	-1,	19,	29,	36,	35,	30,	31,	41,	44,	-1,	39,	-1,	-1,	-1,	14,	-1,	13,	-1,	7,	-1,	25,	27,	48,	22,	21,	42,	-1,	-1,	-1,	-1,	-1,	18,	-1,	-1,	-1,	45,	10,	9,	-1,	33,	38,	32|
21,	-1,	29,	-1,	-1,	23,	-1,	-1,	-1,	16,	-1,	-1,	38,	34,	25,	27,	6,	-1,	-1,	-1,	-1,	30,	2,	-1,	-1,	47,	-1,	33,	-1,	12,	36,	-1,	-1,	-1,	-1,	7,	10,	-1,	-1,	46,	11,	-1,	-1,	-1,	-1,	-1,	-1,	4,	-1|
29,	9,	-1,	-1,	32,	46,	-1,	31,	-1,	-1,	49,	33,	-1,	-1,	-1,	30,	-1,	8,	-1,	2,	-1,	-1,	-1,	-1,	-1,	36,	21,	-1,	-1,	-1,	-1,	48,	-1,	-1,	-1,	14,	34,	-1,	39,	-1,	3,	-1,	26,	35,	-1,	-1,	-1,	-1,	-1|
33,	24,	26,	-1,	-1,	-1,	-1,	14,	-1,	-1,	-1,	36,	19,	-1,	-1,	23,	40,	48,	12,	-1,	27,	49,	-1,	-1,	-1,	-1,	47,	-1,	-1,	2,	1,	-1,	4,	-1,	-1,	-1,	28,	46,	-1,	45,	-1,	-1,	16,	-1,	-1,	-1,	-1,	-1,	44|
-1,	-1,	-1,	-1,	-1,	22,	-1,	29,	-1,	23,	9,	20,	27,	-1,	4,	-1,	-1,	7,	44,	43,	-1,	-1,	-1,	1,	-1,	-1,	25,	-1,	-1,	15,	-1,	-1,	-1,	-1,	-1,	31,	18,	-1,	38,	8,	42,	2,	-1,	48,	-1,	46,	-1,	-1,	33|
49,	38,	-1,	-1,	-1,	-1,	-1,	22,	-1,	40,	1,	15,	35,	-1,	46,	45,	16,	33,	-1,	36,	-1,	-1,	-1,	31,	27,	39,	9,	7,	-1,	-1,	-1,	8,	32,	-1,	-1,	41,	47,	30,	24,	26,	12,	6,	23,	-1,	-1,	-1,	-1,	-1,	-1|
-1,	-1,	25,	-1,	-1,	45,	-1,	46,	-1,	-1,	-1,	2,	-1,	6,	-1,	15,	-1,	42,	26,	31,	-1,	33,	-1,	14,	40,	-1,	-1,	-1,	-1,	-1,	-1,	-1,	38,	-1,	-1,	9,	-1,	44,	-1,	-1,	-1,	22,	-1,	1,	49,	11,	-1,	-1,	36|
-1,	-1,	-1,	-1,	-1,	-1,	-1,	17,	48,	-1,	-1,	-1,	42,	39,	-1,	-1,	-1,	-1,	1,	49,	38,	-1,	34,	-1,	-1,	-1,	45,	-1,	-1,	-1,	-1,	-1,	-1,	-1,	7,	-1,	-1,	40,	29,	27,	37,	4,	10,	-1,	14,	-1,	-1,	-1,	-1|
14,	-1,	-1,	-1,	1,	-1,	-1,	44,	-1,	-1,	-1,	-1,	-1,	-1,	-1,	29,	28,	6,	-1,	-1,	-1,	48,	8,	-1,	-1,	-1,	23,	-1,	-1,	-1,	-1,	-1,	46,	42,	25,	33,	-1,	-1,	-1,	36,	-1,	-1,	-1,	-1,	-1,	-1,	-1,	-1,	-1|
2,	48,	-1,	-1,	33,	47,	-1,	-1,	24,	-1,	-1,	-1,	-1,	4,	-1,	10,	41,	-1,	-1,	-1,	-1,	34,	31,	-1,	-1,	-1,	-1,	-1,	-1,	-1,	25,	22,	19,	-1,	8,	13,	-1,	-1,	17,	14,	-1,	21,	-1,	43,	-1,	-1,	38,	7,	-1|
-1,	-1,	-1,	-1,	-1,	31,	-1,	-1,	-1,	-1,	43,	-1,	-1,	-1,	35,	2,	-1,	13,	-1,	-1,	-1,	-1,	42,	48,	-1,	-1,	16,	-1,	11,	-1,	-1,	1,	-1,	-1,	-1,	26,	44,	-1,	30,	-1,	-1,	-1,	15,	-1,	28,	-1,	-1,	-1,	5|
-1,	21,	-1,	-1,	9,	-1,	-1,	27,	-1,	10,	19,	-1,	-1,	-1,	-1,	-1,	-1,	5,	20,	-1,	-1,	-1,	23,	8,	35,	-1,	-1,	-1,	-1,	17,	-1,	-1,	-1,	34,	-1,	-1,	32,	-1,	-1,	37,	43,	48,	-1,	-1,	2,	-1,	-1,	-1,	26|
-1,	-1,	30,	24,	-1,	-1,	-1,	-1,	16,	-1,	8,	-1,	-1,	15,	44,	-1,	45,	-1,	27,	9,	-1,	-1,	1,	7,	-1,	-1,	-1,	-1,	-1,	-1,	-1,	4,	20,	31,	5,	12,	-1,	34,	19,	-1,	-1,	33,	-1,	-1,	17,	14,	-1,	37,	-1|
-1,	-1,	7,	5,	-1,	49,	-1,	34,	-1,	-1,	28,	39,	-1,	44,	-1,	-1,	43,	-1,	23,	33,	-1,	-1,	-1,	40,	13,	29,	-1,	21,	15,	-1,	48,	35,	37,	36,	-1,	-1,	20,	-1,	11,	41,	-1,	8,	-1,	-1,	30,	12,	-1,	31,	-1|
-1,	43,	32,	-1,	-1,	41,	-1,	-1,	-1,	-1,	-1,	49,	29,	-1,	48,	-1,	1,	-1,	15,	-1,	-1,	39,	-1,	-1,	-1,	6,	37,	-1,	-1,	9,	-1,	-1,	-1,	-1,	23,	-1,	-1,	-1,	5,	-1,	-1,	-1,	36,	16,	19,	-1,	-1,	-1,	-1|
-1,	-1,	-1,	-1,	28,	15,	-1,	37,	2,	-1,	-1,	40,	20,	-1,	6,	-1,	-1,	-1,	36,	21,	11,	-1,	19,	43,	41,	-1,	-1,	-1,	-1,	32,	-1,	39,	-1,	-1,	13,	-1,	-1,	-1,	42,	25,	31,	-1,	-1,	8,	-1,	-1,	-1,	-1,	9|
40,	49,	-1,	48,	35,	9,	-1,	43,	-1,	33,	-1,	6,	39,	28,	-1,	-1,	27,	-1,	25,	29,	-1,	46,	26,	-1,	-1,	-1,	31,	38,	-1,	-1,	-1,	-1,	-1,	-1,	19,	3,	24,	-1,	-1,	-1,	32,	-1,	21,	15,	44,	37,	16,	-1,	7|
37,	29,	-1,	3,	-1,	-1,	-1,	23,	27,	-1,	18,	47,	31,	-1,	-1,	17,	-1,	35,	16,	-1,	26,	-1,	14,	24,	-1,	-1,	-1,	-1,	8,	42,	-1,	-1,	9,	-1,	-1,	-1,	-1,	-1,	-1,	12,	46,	-1,	48,	2,	38,	-1,	-1,	-1,	13|
-1,	6,	41,	23,	-1,	21,	-1,	-1,	-1,	-1,	-1,	-1,	-1,	24,	-1,	-1,	-1,	44,	-1,	18,	-1,	-1,	-1,	-1,	12,	33,	43,	-1,	-1,	-1,	-1,	-1,	22,	-1,	-1,	37,	8,	-1,	-1,	7,	-1,	-1,	-1,	-1,	32,	26,	-1,	-1,	-1|
-1,	13,	44,	-1,	-1,	-1,	34,	-1,	10,	12,	-1,	29,	36,	32,	-1,	-1,	-1,	-1,	-1,	48,	39,	-1,	-1,	-1,	15,	-1,	20,	27,	-1,	-1,	24,	-1,	-1,	-1,	-1,	-1,	-1,	-1,	43,	-1,	-1,	-1,	-1,	-1,	1,	-1,	-1,	41,	-1|
-1,	-1,	2,	-1,	-1,	-1,	18,	49,	-1,	-1,	42,	-1,	7,	-1,	-1,	-1,	-1,	-1,	37,	-1,	-1,	-1,	-1,	34,	23,	25,	-1,	28,	-1,	-1,	-1,	-1,	-1,	-1,	15,	-1,	26,	-1,	-1,	-1,	19,	-1,	-1,	-1,	40,	45,	-1,	-1,	12|
32,	-1,	15,	-1,	26,	-1,	11,	1,	46,	41,	20,	16,	-1,	-1,	-1,	-1,	-1,	23,	-1,	12,	-1,	-1,	-1,	-1,	-1,	44,	-1,	13,	-1,	-1,	31,	-1,	10,	-1,	43,	-1,	-1,	-1,	-1,	-1,	-1,	-1,	-1,	-1,	25,	-1,	-1,	-1,	39|
39,	12,	-1,	-1,	22,	24,	-1,	-1,	5,	-1,	-1,	26,	-1,	19,	-1,	20,	-1,	-1,	9,	-1,	-1,	-1,	29,	37,	17,	-1,	-1,	-1,	-1,	-1,	7,	41,	1,	-1,	35,	-1,	33,	-1,	-1,	-1,	47,	49,	30,	34,	8,	28,	43,	-1,	-1|
-1,	27,	-1,	-1,	-1,	11,	35,	40,	20,	-1,	-1,	22,	-1,	21,	12,	-1,	-1,	-1,	48,	-1,	-1,	15,	-1,	-1,	-1,	43,	-1,	39,	-1,	-1,	46,	28,	3,	-1,	-1,	-1,	-1,	13,	-1,	-1,	14,	41,	5,	-1,	-1,	-1,	19,	-1,	49|
-1,	-1,	-1,	21,	-1,	-1,	-1,	-1,	-1,	18,	-1,	-1,	49,	47,	-1,	6,	-1,	-1,	40,	37,	15,	-1,	7,	45,	19,	-1,	-1,	-1,	-1,	-1,	-1,	-1,	39,	-1,	-1,	-1,	-1,	1,	-1,	24,	-1,	-1,	38,	-1,	-1,	-1,	30,	-1,	41|
10,	45,	-1,	-1,	46,	40,	19,	-1,	-1,	7,	-1,	-1,	3,	-1,	29,	-1,	-1,	24,	49,	14,	44,	4,	-1,	-1,	34,	-1,	-1,	47,	48,	27,	-1,	23,	16,	-1,	-1,	-1,	9,	-1,	28,	18,	-1,	-1,	33,	-1,	15,	-1,	21,	-1,	-1|
8,	-1,	-1,	-1,	-1,	-1,	41,	-1,	42,	-1,	23,	-1,	-1,	-1,	-1,	-1,	-1,	-1,	-1,	16,	-1,	27,	-1,	46,	-1,	26,	-1,	3,	-1,	-1,	30,	-1,	-1,	17,	-1,	19,	15,	-1,	-1,	-1,	-1,	-1,	-1,	-1,	-1,	-1,	22,	-1,	6|
-1,	23,	47,	37,	-1,	25,	-1,	-1,	38,	31,	-1,	5,	46,	-1,	32,	-1,	-1,	30,	-1,	-1,	-1,	-1,	18,	-1,	-1,	9,	13,	-1,	1,	-1,	-1,	-1,	15,	-1,	-1,	16,	-1,	-1,	-1,	-1,	-1,	-1,	28,	-1,	-1,	-1,	-1,	-1,	20|
-1,	42,	31,	15,	-1,	13,	-1,	30,	-1,	-1,	24,	-1,	32,	-1,	-1,	46,	20,	-1,	-1,	25,	-1,	-1,	-1,	-1,	-1,	-1,	-1,	-1,	10,	-1,	49,	-1,	-1,	-1,	-1,	-1,	37,	47,	48,	-1,	-1,	-1,	43,	-1,	39,	-1,	23,	-1,	-1|
-1,	3,	-1,	32,	49,	-1,	24,	15,	-1,	27,	-1,	48,	44,	36,	-1,	9,	-1,	47,	-1,	-1,	-1,	-1,	-1,	30,	-1,	-1,	2,	-1,	6,	-1,	-1,	-1,	-1,	-1,	20,	-1,	-1,	26,	-1,	-1,	34,	-1,	40,	-1,	-1,	1,	-1,	-1,	-1|
-1,	7,	38,	-1,	-1,	14,	-1,	-1,	-1,	-1,	-1,	-1,	-1,	16,	3,	-1,	-1,	-1,	-1,	-1,	-1,	-1,	-1,	-1,	6,	1,	39,	22,	21,	-1,	26,	-1,	48,	-1,	36,	-1,	42,	-1,	-1,	-1,	41,	-1,	37,	-1,	-1,	-1,	-1,	5,	35|
-1,	-1,	5,	20,	10,	16,	-1,	-1,	-1,	43,	39,	-1,	-1,	49,	-1,	-1,	29,	-1,	-1,	-1,	-1,	-1,	46,	-1,	-1,	-1,	-1,	-1,	28,	-1,	19,	42,	41,	-1,	17,	18,	21,	-1,	-1,	-1,	1,	-1,	44,	-1,	-1,	-1,	34,	-1,	-1|
-1,	-1,	17,	-1,	21,	2,	23,	-1,	-1,	11,	35,	-1,	-1,	-1,	38,	-1,	42,	-1,	-1,	39,	1,	-1,	-1,	20,	-1,	34,	14,	49,	-1,	-1,	29,	-1,	12,	-1,	32,	40,	-1,	-1,	-1,	-1,	-1,	-1,	-1,	13,	41,	-1,	-1,	22,	-1|
-1,	30,	-1,	35,	37,	19,	-1,	-1,	3,	-1,	31,	38,	-1,	48,	17,	49,	26,	9,	-1,	-1,	40,	41,	-1,	-1,	18,	21,	-1,	-1,	-1,	-1,	14,	44,	-1,	-1,	2,	-1,	43,	-1,	-1,	-1,	23,	-1,	-1,	39,	11,	-1,	-1,	-1,	-1|
42,	-1,	-1,	-1,	-1,	-1,	32,	7,	-1,	-1,	44,	37,	-1,	-1,	-1,	33,	13,	-1,	-1,	-1,	-1,	38,	12,	-1,	-1,	-1,	-1,	-1,	35,	4,	-1,	-1,	-1,	-1,	3,	-1,	14,	-1,	-1,	-1,	-1,	-1,	-1,	40,	-1,	-1,	-1,	-1,	-1|
-1,	-1,	-1,	-1,	13,	27,	-1,	-1,	23,	32,	-1,	34,	-1,	46,	-1,	41,	19,	-1,	2,	44,	-1,	37,	25,	4,	-1,	-1,	3,	-1,	-1,	33,	43,	-1,	-1,	-1,	-1,	-1,	-1,	5,	47,	38,	-1,	-1,	-1,	12,	-1,	30,	8,	-1,	17|
-1,	-1,	-1,	-1,	41,	33,	3,	-1,	36,	-1,	10,	42,	-1,	17,	-1,	24,	-1,	14,	47,	-1,	-1,	-1,	13,	-1,	-1,	-1,	30,	48,	22,	-1,	-1,	27,	18,	-1,	-1,	-1,	-1,	-1,	20,	15,	-1,	16,	19,	-1,	4,	-1,	28,	32,	-1|
-1,	-1,	-1,	-1,	2,	39,	9,	-1,	-1,	-1,	27,	-1,	-1,	-1,	-1,	-1,	-1,	26,	-1,	42,	-1,	-1,	-1,	-1,	-1,	-1,	-1,	46,	-1,	-1,	41,	-1,	-1,	-1,	1,	-1,	-1,	-1,	14,	-1,	-1,	-1,	-1,	11,	-1,	36,	-1,	-1,	48|
-1,	-1,	-1,	-1,	-1,	-1,	-1,	2,	39,	38,	13,	31,	-1,	-1,	36,	-1,	-1,	-1,	33,	24,	-1,	-1,	9,	-1,	-1,	32,	-1,	34,	-1,	-1,	11,	-1,	-1,	20,	-1,	21,	-1,	-1,	-1,	-1,	45,	-1,	-1,	37,	16,	-1,	-1,	27,	-1|
-1,	37,	22,	-1,	24,	30,	-1,	42,	-1,	19,	-1,	-1,	41,	-1,	-1,	31,	-1,	-1,	-1,	-1,	-1,	45,	-1,	25,	48,	-1,	-1,	23,	2,	-1,	-1,	43,	33,	-1,	-1,	49,	36,	16,	-1,	-1,	-1,	-1,	-1,	-1,	-1,	3,	12,	-1,	-1|
-1,	34,	4,	43,	-1,	-1,	-1,	-1,	-1,	36,	-1,	-1,	-1,	-1,	-1,	13,	32,	41,	-1,	-1,	25,	-1,	-1,	-1,	29,	-1,	7,	-1,	-1,	39,	-1,	-1,	31,	-1,	-1,	-1,	-1,	11,	-1,	-1,	-1,	10,	-1,	-1,	35,	-1,	-1,	-1,	15|
48,	47,	-1,	-1,	-1,	-1,	-1,	-1,	-1,	15,	-1,	25,	-1,	-1,	-1,	-1,	38,	-1,	-1,	-1,	8,	-1,	-1,	-1,	-1,	-1,	1,	-1,	49,	-1,	42,	-1,	-1,	-1,	24,	-1,	-1,	-1,	6,	-1,	20,	27,	34,	32,	-1,	41,	-1,	39,	31|
41,	-1,	-1,	-1,	-1,	-1,	27,	-1,	12,	30,	11,	1,	-1,	-1,	-1,	40,	-1,	-1,	-1,	6,	49,	-1,	-1,	39,	-1,	-1,	-1,	-1,	-1,	-1,	-1,	29,	34,	-1,	48,	-1,	3,	-1,	-1,	-1,	15,	-1,	42,	-1,	24,	10,	20,	-1,	-1|
-1,	-1,	-1,	31,	19,	-1,	-1,	-1,	-1,	-1,	-1,	-1,	37,	-1,	14,	-1,	17,	10,	43,	-1,	34,	18,	-1,	-1,	36,	2,	-1,	-1,	38,	7,	-1,	-1,	-1,	-1,	6,	-1,	-1,	-1,	26,	-1,	29,	35,	1,	-1,	13,	9,	-1,	-1,	40|];
