sudoku-ls/benchmarks_LEQ/INST_49x49/40/inst49x49_40_83.txt
7
1
31	1	-1	-1	-1	-1	-1	-1	7	20	45	12	-1	-1	-1	-1	-1	-1	-1	38	-1	23	-1	-1	-1	-1	-1	40	-1	11	6	-1	2	49	33	-1	-1	41	3	35	-1	30	-1	-1	-1	21	44	-1	28
-1	17	-1	-1	36	44	-1	-1	-1	49	40	21	2	-1	18	-1	-1	-1	-1	35	-1	43	-1	10	-1	-1	-1	-1	4	-1	-1	25	23	-1	41	47	1	-1	-1	-1	24	-1	11	30	-1	-1	13	-1	-1
-1	-1	27	-1	-1	32	38	9	-1	-1	47	-1	11	3	30	8	-1	-1	-1	-1	-1	-1	-1	-1	-1	24	18	6	-1	-1	35	-1	43	-1	-1	-1	-1	33	25	34	-1	-1	14	-1	48	-1	-1	40	29
-1	-1	6	-1	30	35	42	48	32	46	-1	-1	15	-1	-1	-1	-1	21	-1	7	-1	29	-1	41	28	-1	-1	12	9	-1	-1	-1	40	24	-1	20	-1	-1	-1	44	-1	-1	-1	-1	5	17	36	1	-1
20	25	3	-1	-1	26	-1	-1	-1	-1	-1	24	1	43	-1	11	-1	-1	-1	-1	28	-1	36	-1	-1	-1	-1	-1	32	-1	-1	-1	-1	-1	30	-1	-1	14	-1	-1	16	-1	-1	7	-1	-1	-1	-1	46
46	-1	-1	-1	11	37	-1	-1	-1	29	-1	35	-1	-1	-1	-1	-1	39	-1	-1	12	-1	-1	13	16	7	-1	-1	-1	48	-1	21	-1	-1	26	-1	-1	43	18	23	4	40	45	10	9	8	33	-1	32
-1	-1	29	28	40	-1	48	-1	-1	-1	-1	13	-1	34	25	-1	-1	49	24	-1	-1	-1	-1	9	-1	47	26	-1	18	-1	36	-1	14	-1	45	7	10	32	37	46	-1	-1	-1	-1	20	-1	41	4	-1
-1	-1	-1	-1	-1	46	15	31	-1	-1	-1	-1	-1	-1	37	30	-1	-1	17	2	-1	-1	-1	-1	-1	-1	-1	-1	23	-1	13	48	-1	-1	-1	14	-1	-1	-1	1	-1	-1	26	-1	-1	5	4	20	-1
-1	-1	26	-1	42	18	21	14	-1	-1	-1	-1	-1	-1	-1	-1	-1	48	12	-1	-1	-1	-1	38	-1	-1	-1	43	41	-1	-1	-1	-1	35	-1	10	28	-1	-1	-1	-1	17	16	-1	-1	-1	39	9	44
-1	36	-1	-1	-1	22	30	29	-1	23	-1	20	-1	-1	-1	32	-1	-1	-1	-1	-1	-1	-1	-1	26	41	-1	5	-1	-1	-1	-1	-1	-1	49	-1	18	21	38	8	-1	2	-1	48	-1	-1	-1	19	-1
-1	-1	-1	-1	-1	10	17	-1	-1	-1	1	15	-1	25	-1	45	-1	-1	-1	36	3	20	-1	-1	-1	-1	9	-1	44	-1	-1	8	32	-1	29	41	47	30	24	-1	-1	-1	-1	-1	21	-1	37	43	42
35	20	25	27	-1	45	-1	-1	-1	24	-1	2	16	-1	-1	-1	-1	42	-1	-1	-1	33	-1	14	-1	-1	-1	-1	3	-1	-1	-1	38	-1	-1	-1	-1	-1	13	5	-1	-1	12	1	49	-1	32	-1	-1
23	28	-1	44	3	8	5	-1	48	47	-1	32	-1	-1	13	-1	9	-1	1	49	38	-1	-1	-1	-1	-1	-1	24	-1	-1	-1	-1	-1	-1	7	15	-1	-1	-1	27	-1	4	-1	-1	-1	-1	-1	6	-1
14	-1	-1	-1	-1	-1	-1	-1	-1	-1	-1	-1	-1	-1	-1	-1	28	-1	41	22	-1	-1	-1	-1	-1	-1	23	32	-1	-1	-1	-1	46	42	-1	-1	-1	19	-1	36	35	20	-1	-1	47	-1	7	-1	24
2	-1	-1	-1	-1	-1	-1	36	-1	-1	-1	3	18	-1	-1	10	41	-1	-1	30	-1	-1	31	32	44	28	46	-1	-1	-1	25	22	-1	-1	8	-1	-1	9	17	14	-1	-1	-1	-1	23	-1	-1	7	-1
-1	39	-1	-1	17	31	37	-1	47	-1	43	-1	-1	-1	35	-1	-1	-1	8	-1	29	-1	-1	-1	-1	4	16	14	11	-1	-1	-1	27	-1	-1	26	-1	-1	-1	49	36	3	15	45	-1	20	-1	-1	-1
36	21	11	-1	9	-1	-1	-1	-1	-1	-1	-1	-1	-1	42	-1	-1	5	20	-1	22	47	-1	8	-1	3	12	-1	-1	17	-1	-1	-1	-1	-1	-1	32	15	-1	37	-1	-1	41	-1	-1	-1	1	49	-1
6	35	-1	-1	23	-1	-1	38	16	-1	8	41	22	15	44	-1	-1	-1	-1	-1	47	2	-1	-1	25	-1	-1	26	-1	-1	-1	4	-1	31	-1	-1	-1	-1	19	28	39	33	-1	-1	-1	14	48	37	-1
45	-1	7	-1	-1	-1	4	34	9	14	-1	-1	-1	-1	-1	16	-1	-1	-1	-1	32	-1	38	-1	13	-1	-1	-1	-1	6	48	35	-1	36	-1	-1	20	18	-1	-1	2	8	-1	-1	30	-1	-1	31	-1
25	43	-1	-1	-1	-1	12	-1	-1	17	-1	-1	-1	-1	48	3	-1	-1	-1	28	31	39	-1	27	-1	-1	37	45	-1	9	-1	46	-1	-1	-1	35	-1	-1	5	10	40	-1	-1	-1	-1	-1	-1	-1	-1
-1	10	-1	-1	-1	-1	-1	37	2	-1	48	-1	20	-1	-1	38	24	-1	-1	21	11	-1	19	-1	-1	-1	-1	-1	-1	-1	-1	39	-1	12	-1	23	-1	45	42	25	-1	7	27	-1	-1	44	29	-1	-1
-1	-1	-1	-1	-1	-1	10	43	-1	-1	30	-1	39	28	5	-1	27	-1	25	-1	-1	-1	26	-1	-1	-1	-1	-1	-1	-1	4	-1	-1	2	-1	3	24	-1	-1	-1	32	34	-1	15	44	-1	-1	36	-1
37	-1	28	3	-1	-1	33	-1	-1	-1	-1	47	31	-1	-1	-1	49	-1	16	15	-1	-1	14	24	-1	-1	-1	-1	-1	42	20	-1	-1	6	34	-1	30	-1	41	-1	-1	5	-1	2	-1	22	11	-1	-1
-1	-1	41	-1	-1	-1	-1	-1	25	45	-1	-1	-1	-1	40	36	-1	-1	38	-1	-1	-1	-1	-1	-1	-1	-1	-1	5	30	-1	49	-1	48	-1	-1	-1	31	-1	7	-1	29	-1	-1	-1	26	-1	-1	-1
-1	-1	44	45	-1	42	-1	4	10	-1	-1	-1	36	-1	-1	21	-1	-1	-1	-1	-1	-1	-1	-1	-1	30	20	27	-1	-1	-1	-1	-1	25	-1	-1	2	-1	-1	-1	-1	-1	49	-1	1	-1	-1	41	-1
27	-1	-1	-1	-1	17	18	49	-1	-1	42	14	7	11	-1	47	-1	-1	-1	4	-1	36	-1	-1	-1	-1	35	-1	39	-1	44	32	29	-1	15	-1	-1	6	-1	9	19	13	-1	-1	-1	45	-1	-1	12
-1	-1	-1	30	-1	4	11	-1	46	41	-1	16	34	-1	7	28	3	-1	-1	12	-1	8	49	42	9	44	-1	-1	37	-1	-1	18	10	33	-1	-1	-1	-1	-1	-1	22	-1	29	24	-1	19	17	-1	39
-1	-1	-1	-1	-1	-1	-1	-1	-1	21	-1	26	-1	19	-1	-1	31	-1	-1	-1	-1	10	29	37	-1	-1	6	-1	13	23	7	-1	1	-1	35	-1	33	-1	-1	4	-1	49	30	34	-1	28	-1	18	-1
30	-1	-1	7	-1	-1	-1	-1	-1	37	-1	-1	8	-1	-1	1	-1	-1	-1	-1	-1	-1	-1	-1	31	-1	24	-1	34	36	-1	-1	-1	-1	44	-1	-1	-1	-1	-1	14	-1	-1	-1	-1	47	19	-1	-1
-1	-1	14	21	-1	-1	36	10	11	18	-1	-1	49	-1	34	6	-1	-1	-1	-1	15	25	-1	-1	-1	-1	-1	-1	42	43	33	2	-1	29	9	32	27	-1	35	-1	-1	-1	-1	46	-1	13	-1	-1	-1
10	-1	-1	-1	-1	-1	19	-1	35	7	-1	-1	-1	13	29	-1	22	24	-1	-1	44	4	37	5	34	-1	-1	47	48	-1	-1	-1	16	32	31	-1	9	-1	-1	-1	6	-1	33	36	-1	-1	-1	-1	8
8	44	34	33	-1	48	-1	-1	42	-1	-1	-1	-1	-1	45	43	36	-1	5	-1	7	27	-1	-1	49	26	-1	3	47	-1	-1	-1	-1	-1	37	-1	-1	-1	21	20	-1	38	-1	14	12	-1	-1	-1	-1
17	-1	-1	37	-1	25	-1	-1	-1	-1	-1	-1	-1	33	-1	39	21	30	-1	-1	2	-1	18	-1	-1	-1	-1	29	-1	24	-1	-1	-1	19	-1	16	-1	49	40	-1	8	44	28	27	7	-1	-1	11	-1
-1	-1	-1	15	-1	-1	-1	-1	28	-1	-1	-1	32	45	-1	-1	20	3	-1	-1	-1	-1	-1	-1	14	-1	-1	1	-1	-1	-1	-1	-1	40	12	4	-1	47	48	-1	7	36	-1	9	39	29	-1	44	-1
-1	-1	-1	-1	-1	-1	24	15	29	27	-1	-1	-1	-1	33	-1	11	47	-1	-1	-1	21	16	-1	-1	-1	2	41	-1	-1	-1	-1	-1	-1	-1	43	-1	-1	-1	42	34	-1	40	4	45	-1	-1	17	37
24	-1	-1	-1	47	-1	-1	19	-1	25	-1	-1	12	-1	3	-1	-1	-1	-1	23	43	44	-1	-1	-1	-1	39	22	-1	8	-1	-1	-1	13	36	11	42	-1	45	-1	41	32	37	-1	-1	-1	49	5	-1
-1	22	-1	-1	-1	-1	-1	-1	33	43	-1	27	47	49	-1	-1	29	-1	6	-1	-1	-1	46	-1	7	-1	-1	-1	28	31	19	-1	41	-1	-1	-1	21	-1	-1	30	-1	-1	-1	-1	-1	-1	-1	-1	38
-1	18	17	-1	21	-1	-1	-1	15	-1	-1	30	-1	8	-1	7	42	-1	10	-1	1	-1	47	-1	-1	-1	14	-1	-1	5	-1	-1	-1	-1	32	-1	-1	48	44	-1	33	46	-1	13	41	16	27	-1	-1
-1	-1	45	-1	37	19	-1	5	-1	22	31	-1	4	48	17	-1	-1	-1	-1	-1	-1	-1	-1	-1	18	21	-1	-1	-1	-1	-1	44	-1	-1	2	-1	43	36	12	13	-1	-1	-1	39	-1	42	-1	29	-1
42	-1	-1	-1	-1	-1	32	-1	1	2	-1	-1	28	41	-1	-1	-1	-1	21	-1	-1	38	-1	-1	-1	-1	19	36	35	-1	23	-1	-1	30	3	22	-1	-1	27	6	-1	-1	9	-1	-1	-1	-1	-1	-1
1	31	-1	-1	13	27	-1	-1	-1	-1	21	-1	-1	-1	-1	41	-1	18	2	-1	36	-1	-1	-1	11	-1	-1	-1	16	33	-1	24	-1	15	40	-1	35	-1	-1	-1	-1	28	-1	12	10	-1	8	-1	-1
-1	-1	-1	-1	41	-1	3	-1	-1	9	-1	-1	-1	-1	-1	-1	25	14	47	-1	-1	-1	-1	-1	-1	23	-1	-1	-1	1	-1	-1	18	-1	-1	34	7	37	-1	-1	-1	-1	-1	26	4	-1	28	-1	-1
13	-1	18	38	2	-1	9	-1	-1	-1	-1	7	40	-1	-1	-1	12	-1	-1	-1	-1	-1	-1	-1	-1	10	-1	-1	-1	3	-1	-1	-1	45	1	-1	-1	-1	14	-1	-1	-1	-1	11	43	36	-1	-1	48
-1	-1	-1	42	15	-1	-1	2	39	-1	-1	-1	-1	-1	-1	-1	44	-1	-1	24	-1	-1	9	28	-1	-1	-1	34	-1	-1	11	-1	35	-1	-1	21	-1	17	-1	43	-1	-1	-1	-1	-1	-1	-1	27	-1
-1	-1	-1	-1	-1	-1	-1	-1	-1	19	32	28	-1	-1	-1	-1	39	-1	-1	11	9	-1	35	-1	-1	20	38	-1	2	44	-1	43	33	26	-1	49	-1	-1	-1	-1	13	-1	-1	-1	-1	3	-1	47	-1
-1	-1	-1	-1	45	1	40	-1	-1	36	3	-1	5	20	-1	13	-1	-1	-1	-1	25	6	-1	-1	29	-1	-1	-1	-1	39	9	16	31	22	21	42	48	-1	-1	-1	-1	-1	18	49	-1	-1	-1	28	15
-1	-1	35	17	-1	-1	-1	21	-1	15	46	-1	33	9	-1	-1	38	2	18	3	8	-1	43	-1	-1	13	-1	11	49	-1	-1	-1	5	-1	24	-1	-1	-1	-1	22	20	-1	-1	32	-1	41	-1	-1	-1
-1	-1	33	-1	-1	28	-1	-1	-1	-1	-1	-1	43	-1	19	-1	-1	45	-1	-1	49	-1	21	39	-1	14	4	-1	36	13	-1	-1	34	18	-1	-1	-1	38	7	32	-1	-1	-1	-1	-1	-1	20	-1	2
16	11	-1	-1	-1	20	-1	-1	-1	48	4	44	-1	22	-1	-1	17	10	-1	27	-1	-1	24	-1	36	-1	-1	42	-1	-1	-1	15	-1	-1	-1	-1	46	-1	-1	-1	29	-1	-1	-1	-1	9	-1	-1	-1
49 
18 23 37 41
9 30 11 4
9 25 49 24
29 34 47 16
2 25 25 23
21 15 7 17
17 14 20 29
35 34 46 12
48 42 18 20
8 23 33 25
28 34 13 37
40 23 29 15
35 20 22 9
13 45 40 37
2 31 31 45
30 11 13 26
7 32 6 37
37 36 8 9
3 32 17 11
33 49 9 20
23 25 22 43
48 19 45 3
31 32 35 21
26 15 6 3
14 35 31 46
39 17 29 45
7 16 23 9
11 44 31 39
41 36 5 30
45 6 32 31
22 27 26 47
33 15 49 31
19 20 11 18
38 26 2 46
38 11 25 38
33 24 12 49
15 21 14 3
4 41 22 28
8 39 40 42
45 40 19 24
31 8 22 21
5 45 7 42
13 3 15 44
14 8 16 37
13 27 3 37
46 19 31 5
33 3 19 44
15 2 44 16
3 46 41 3
